NAME :  IRP
COMMENT : 
TYPE :  CVRP
DIMENSION : 	28
EDGE_WEIGHT_TYPE : 	EUC_2D
CAPACITY : 	4203
NODE_COORD_SECTION
1	435	167
2	69	350
3	88	350
4	78	269
5	17	87
6	44	74
7	67	233
8	136	432
9	200	439
10	167	92
11	329	351
12	430	284
13	416	355
14	325	223
15	444	53
16	480	79
17	402	208
18	405	219
19	8	334
20	83	294
21	81	85
22	97	220
23	450	465
24	469	478
25	419	412
26	410	457
27	346	14
28	384	183
DEMAND_SECTION
1	0
2	48
3	126
4	156
5	36
6	100
7	36
8	88
9	56
10	74
11	122
12	122
13	144
14	152
15	80
16	48
17	62
18	44
19	87
20	114
21	99
22	198
23	264
24	108
25	126
26	228
27	219
28	231
DEPOT_SECTION
	1
	-1
EOF
